p cnf 21 11
e 1 0
a 2 0
e 3 0
a 4 0
e 5 0
a 6 0
e 7 8 0
a 9 10 0
e 11 0
a 12 13 14 0
e 15 0
a 16 17 0
e 18 0
a 19 0
e 20 21 0
-20 14 13 7 0
-8 7 -3 16 -17 0
-21 9 8 -10 -1 0
16 -8 -13 -9 0
15 -12 -13 7 0
-17 4 -9 -10 18 0
4 -9 19 0
-19 -20 -16 0
-6 -21 10 0
10 12 17 3 0
8 -10 2 -7 -14 0
